
******************************************************************************
This program contains Ipopt, a library for large-scale nonlinear optimization.
 Ipopt is released as open source code under the Eclipse Public License (EPL).
         For more information visit http://projects.coin-or.org/Ipopt
******************************************************************************

This is Ipopt version 3.12.6, running with linear solver ma57.

Number of nonzeros in equality constraint Jacobian...:        0
Number of nonzeros in inequality constraint Jacobian.:        4
Number of nonzeros in Lagrangian Hessian.............:        0

Total number of variables............................:        2
                     variables with only lower bounds:        2
                variables with lower and upper bounds:        0
                     variables with only upper bounds:        0
Total number of equality constraints.................:        0
Total number of inequality constraints...............:        2
        inequality constraints with only lower bounds:        2
   inequality constraints with lower and upper bounds:        0
        inequality constraints with only upper bounds:        0

iter    objective    inf_pr   inf_du lg(mu)  ||d||  lg(rg) alpha_du alpha_pr  ls
   0  3.0000000e-01 1.20e+00 1.00e+00  -1.0 0.00e+00    -  0.00e+00 0.00e+00   0
   1  1.5543859e+00 0.00e+00 3.59e+00  -1.0 4.58e-01    -  2.16e-01 1.00e+00h  1
   2  1.1972184e+00 0.00e+00 8.87e-01  -1.0 3.34e-01    -  4.37e-01 1.00e+00f  1
   3  1.0333518e+00 0.00e+00 8.06e-01  -1.7 6.95e-01    -  6.55e-01 2.34e-01f  1
   4  1.0523637e+00 0.00e+00 2.00e-07  -1.7 3.77e-02    -  1.00e+00 1.00e+00f  1
   5  1.0036640e+00 0.00e+00 7.52e-03  -3.8 3.03e-02    -  1.00e+00 9.16e-01f  1
   6  1.0003093e+00 0.00e+00 1.50e-09  -3.8 3.80e-03    -  1.00e+00 1.00e+00f  1
   7  1.0000036e+00 0.00e+00 1.84e-11  -5.7 1.56e-04    -  1.00e+00 1.00e+00f  1
   8  9.9999999e-01 0.00e+00 2.51e-14  -8.6 1.91e-06    -  1.00e+00 1.00e+00f  1

Number of Iterations....: 8

                                   (scaled)                 (unscaled)
Objective...............:   9.9999998500623966e-01    9.9999998500623966e-01
Dual infeasibility......:   2.5091040356528538e-14    2.5091040356528538e-14
Constraint violation....:   0.0000000000000000e+00    0.0000000000000000e+00
Complementarity.........:   2.5166080429673839e-09    2.5166080429673839e-09
Overall NLP error.......:   2.5166080429673839e-09    2.5166080429673839e-09


Number of objective function evaluations             = 9
Number of objective gradient evaluations             = 9
Number of equality constraint evaluations            = 0
Number of inequality constraint evaluations          = 9
Number of equality constraint Jacobian evaluations   = 0
Number of inequality constraint Jacobian evaluations = 9
Number of Lagrangian Hessian evaluations             = 8
Total CPU secs in IPOPT (w/o function evaluations)   =      0.000
Total CPU secs in NLP function evaluations           =      0.000

EXIT: Optimal Solution Found.

************************ CUTEst statistics ************************


 Package used            :  IPOPT
 Problem                 :  SIMPLLPA  
 # variables             =               2
 # constraints           =               2
 # objective functions   =        0.1900000E+02
 # objective gradients   =        0.1000000E+02
 # objective Hessians    =        0.9000000E+01
 # Hessian-vector prdct  =        0.0000000E+00
 # constraints functions =        0.2000000E+02
 # constraints gradients =        0.1100000E+02
 # constraints Hessians  =        0.9000000E+01
 Exit code               =               0
 Final f                 =   0.1000000E+01
 Set up time             =            0.00 seconds
 Solve time              =            0.02 seconds


******************************************************************

System Time =       0.0030000000 s.
